22 2147483651 2147483669 2147483672 2147483693 2147483735 2147483766 2147483771 2147483789 2147483793 2147483804 
23 2147483651 2147483669 2147483672 2147483693 2147483766 2147483771 2147483789 2147483793 2147483804 
24 2147483651 2147483669 2147483672 2147483693 2147483735 2147483766 2147483771 2147483789 2147483793 
25 2147483651 2147483669 2147483672 2147483693 2147483735 2147483766 2147483771 2147483789 2147483793 2147483804 
26 2147483651 2147483669 2147483672 2147483693 2147483771 2147483789 2147483793 
27 2147483651 2147483669 2147483672 2147483693 2147483771 2147483789 2147483793 
32 2147483651 2147483669 2147483672 2147483693 2147483771 2147483789 2147483793 
49 2147483648 2147483649 2147483654 2147483668 2147483671 2147483696 2147483709 2147483712 2147483713 2147483716 2147483717 2147483720 2147483721 2147483722 2147483732 2147483741 2147483744 2147483745 2147483746 2147483749 2147483750 2147483751 2147483753 2147483769 2147483770 2147483781 2147483790 2147483791 2147483792 2147483794 2147483798 2147483799 
50 2147483648 2147483649 2147483654 2147483668 2147483671 2147483696 2147483709 2147483713 2147483716 2147483717 2147483720 2147483721 2147483722 2147483723 2147483724 2147483744 2147483745 2147483746 2147483749 2147483750 2147483751 2147483753 2147483769 2147483770 2147483781 2147483790 2147483791 2147483792 2147483794 2147483798 2147483800 2147483802 
51 2147483648 2147483654 2147483668 2147483671 2147483696 2147483709 2147483712 2147483713 2147483717 2147483732 2147483741 2147483744 2147483745 2147483746 2147483749 2147483750 2147483751 2147483753 2147483770 2147483781 2147483790 2147483791 2147483792 2147483794 2147483798 2147483799 2147483800 2147483802 
52 2147483648 2147483649 2147483654 2147483668 2147483671 2147483696 2147483709 2147483713 2147483717 2147483720 2147483721 2147483722 2147483723 2147483724 2147483744 2147483745 2147483746 2147483749 2147483750 2147483751 2147483753 2147483769 2147483770 2147483781 2147483790 2147483791 2147483792 2147483794 2147483798 2147483802 
53 2147483648 2147483654 2147483668 2147483671 2147483696 2147483709 2147483717 2147483723 2147483724 2147483746 2147483769 2147483770 2147483790 2147483791 2147483792 2147483798 2147483800 2147483802 
54 2147483648 2147483649 2147483654 2147483668 2147483671 2147483696 2147483709 2147483713 2147483717 2147483720 2147483721 2147483722 2147483724 2147483746 2147483751 2147483753 2147483769 2147483770 2147483790 2147483791 2147483792 2147483798 2147483802 
57 2147483648 2147483649 2147483654 2147483668 2147483671 2147483696 2147483709 2147483713 2147483716 2147483717 2147483720 2147483721 2147483722 2147483723 2147483724 2147483746 2147483769 2147483770 2147483790 2147483791 2147483792 2147483798 2147483800 2147483802 
127 2147483648 2147483668 2147483671 2147483709 2147483790 2147483798 
128 2147483648 2147483668 2147483671 2147483709 2147483790 2147483798 
129 2147483648 2147483668 2147483671 2147483709 2147483790 2147483798 
130 2147483648 2147483668 2147483671 2147483709 2147483790 2147483798 
131 2147483668 2147483671 2147483696 2147483732 2147483741 2147483744 2147483745 2147483746 2147483749 2147483750 2147483751 2147483753 2147483781 2147483790 2147483791 2147483792 2147483794 2147483800 2147483802 
132 2147483668 2147483671 2147483696 2147483741 2147483744 2147483745 2147483746 2147483749 2147483750 2147483751 2147483753 2147483781 2147483790 2147483791 2147483792 2147483794 2147483800 2147483802 
133 2147483648 2147483668 2147483671 2147483696 2147483732 2147483741 2147483744 2147483745 2147483746 2147483749 2147483750 2147483751 2147483753 2147483781 2147483790 2147483791 2147483792 2147483794 2147483798 2147483800 2147483802 
134 2147483648 2147483649 2147483654 2147483668 2147483671 2147483696 2147483709 2147483712 2147483713 2147483716 2147483717 2147483720 2147483721 2147483722 2147483723 2147483724 2147483741 2147483744 2147483745 2147483746 2147483749 2147483750 2147483751 2147483753 2147483769 2147483770 2147483781 2147483790 2147483791 2147483792 2147483794 2147483798 2147483800 2147483802 
263 2147483669 2147483672 2147483789 
264 2147483669 2147483672 2147483789 
265 2147483669 2147483672 2147483789 
266 2147483669 2147483672 2147483789 
267 2147483669 2147483672 2147483693 2147483735 2147483789 2147483793 2147483804 
268 2147483669 2147483672 2147483693 2147483735 2147483789 2147483793 2147483804 
269 2147483669 2147483672 2147483693 2147483735 2147483766 2147483789 2147483793 2147483804 
270 2147483651 2147483669 2147483672 2147483693 2147483766 2147483771 2147483789 2147483793 2147483804 
2147483648 2147483649 2147483651 2147483654 2147483668 2147483669 2147483709 2147483713 2147483716 2147483717 2147483720 2147483721 2147483722 2147483723 2147483724 2147483766 2147483769 2147483770 2147483771 2147483798 49 52 54 57 53 127 128 129 130 51 133 134 50 2147483649 2147483651 2147483654 2147483668 2147483669 2147483709 2147483713 2147483716 2147483717 2147483720 2147483721 2147483722 2147483723 2147483724 2147483766 2147483769 2147483770 2147483771 2147483798 
2147483649 2147483648 2147483648 2147483651 2147483654 2147483720 2147483721 2147483722 2147483798 49 52 54 57 134 50 2147483651 2147483654 2147483720 2147483721 2147483722 2147483798 
2147483651 2147483648 2147483649 2147483648 2147483649 2147483654 2147483713 2147483717 2147483720 2147483721 2147483722 2147483769 2147483770 2147483771 2147483798 22 25 27 32 26 24 23 270 2147483654 2147483713 2147483717 2147483720 2147483721 2147483722 2147483769 2147483770 2147483771 2147483798 
2147483654 2147483648 2147483649 2147483651 2147483648 2147483649 2147483651 2147483713 2147483717 2147483720 2147483721 2147483722 2147483769 2147483770 2147483771 2147483798 49 52 54 57 53 51 134 50 2147483713 2147483717 2147483720 2147483721 2147483722 2147483769 2147483770 2147483771 2147483798 
2147483668 2147483648 2147483648 2147483669 2147483671 2147483672 2147483693 2147483696 2147483732 2147483735 2147483741 2147483744 2147483745 2147483746 2147483749 2147483750 2147483751 2147483753 2147483766 2147483781 2147483789 2147483790 2147483791 2147483792 2147483793 2147483794 2147483798 2147483799 2147483800 2147483802 49 52 54 57 53 127 128 129 130 51 133 134 131 132 50 2147483669 2147483671 2147483672 2147483693 2147483696 2147483732 2147483735 2147483741 2147483744 2147483745 2147483746 2147483749 2147483750 2147483751 2147483753 2147483766 2147483781 2147483789 2147483790 2147483791 2147483792 2147483793 2147483794 2147483798 2147483799 2147483800 2147483802 
2147483669 2147483648 2147483668 2147483648 2147483668 2147483671 2147483672 2147483693 2147483696 2147483732 2147483735 2147483741 2147483744 2147483745 2147483746 2147483749 2147483750 2147483751 2147483753 2147483766 2147483781 2147483789 2147483790 2147483791 2147483792 2147483793 2147483794 2147483798 2147483800 2147483802 2147483804 22 25 27 32 26 263 264 265 266 24 23 269 270 267 268 2147483671 2147483672 2147483693 2147483696 2147483732 2147483735 2147483741 2147483744 2147483745 2147483746 2147483749 2147483750 2147483751 2147483753 2147483766 2147483781 2147483789 2147483790 2147483791 2147483792 2147483793 2147483794 2147483798 2147483800 2147483802 2147483804 
2147483671 2147483668 2147483669 2147483668 2147483669 2147483672 2147483693 2147483696 2147483732 2147483735 2147483741 2147483744 2147483745 2147483746 2147483749 2147483750 2147483751 2147483753 2147483781 2147483789 2147483790 2147483791 2147483792 2147483793 2147483794 2147483800 2147483802 2147483804 49 52 54 57 53 127 128 129 130 51 133 134 131 132 50 2147483672 2147483693 2147483696 2147483732 2147483735 2147483741 2147483744 2147483745 2147483746 2147483749 2147483750 2147483751 2147483753 2147483781 2147483789 2147483790 2147483791 2147483792 2147483793 2147483794 2147483800 2147483802 2147483804 
2147483672 2147483668 2147483669 2147483671 2147483668 2147483669 2147483671 2147483693 2147483696 2147483741 2147483744 2147483745 2147483746 2147483749 2147483750 2147483751 2147483753 2147483781 2147483789 2147483790 2147483791 2147483792 2147483793 2147483794 2147483800 2147483802 2147483804 22 25 27 32 26 263 264 265 266 24 23 269 270 267 268 2147483693 2147483696 2147483741 2147483744 2147483745 2147483746 2147483749 2147483750 2147483751 2147483753 2147483781 2147483789 2147483790 2147483791 2147483792 2147483793 2147483794 2147483800 2147483802 2147483804 
2147483693 2147483668 2147483669 2147483671 2147483672 2147483668 2147483669 2147483671 2147483672 2147483696 2147483746 2147483789 2147483790 2147483791 2147483792 2147483793 22 25 27 32 26 24 23 269 270 267 268 2147483696 2147483746 2147483789 2147483790 2147483791 2147483792 2147483793 
2147483696 2147483668 2147483669 2147483671 2147483672 2147483693 2147483668 2147483669 2147483671 2147483672 2147483693 2147483789 2147483790 2147483791 2147483792 2147483793 49 52 54 57 53 51 133 134 131 132 50 2147483789 2147483790 2147483791 2147483792 2147483793 
2147483709 2147483648 2147483648 2147483712 2147483798 53 57 49 52 54 127 128 129 130 51 134 50 2147483712 2147483798 
2147483712 2147483709 2147483709 2147483798 49 51 134 2147483798 
2147483713 2147483648 2147483651 2147483654 2147483648 2147483651 2147483654 2147483716 2147483717 2147483771 2147483798 49 52 54 57 51 134 50 2147483716 2147483717 2147483771 2147483798 
2147483716 2147483648 2147483713 2147483648 2147483713 2147483798 49 57 134 50 2147483798 
2147483717 2147483648 2147483651 2147483654 2147483713 2147483648 2147483651 2147483654 2147483713 2147483770 2147483771 2147483798 49 52 54 57 53 51 134 50 2147483770 2147483771 2147483798 
2147483720 2147483648 2147483649 2147483651 2147483654 2147483648 2147483649 2147483651 2147483654 2147483798 49 52 54 57 134 50 2147483798 
2147483721 2147483648 2147483649 2147483651 2147483654 2147483648 2147483649 2147483651 2147483654 2147483798 49 52 54 57 134 50 2147483798 
2147483722 2147483648 2147483649 2147483651 2147483654 2147483648 2147483649 2147483651 2147483654 2147483798 49 52 54 57 134 50 2147483798 
2147483723 2147483648 2147483648 2147483724 2147483798 57 52 53 134 50 2147483724 2147483798 
2147483724 2147483648 2147483723 2147483648 2147483723 2147483798 52 54 57 53 134 50 2147483798 
2147483732 2147483668 2147483669 2147483671 2147483668 2147483669 2147483671 49 51 133 131 
2147483735 2147483668 2147483669 2147483671 2147483668 2147483669 2147483671 2147483781 2147483789 22 25 24 269 267 268 2147483781 2147483789 
2147483741 2147483668 2147483669 2147483671 2147483672 2147483668 2147483669 2147483671 2147483672 2147483789 49 51 133 134 131 132 2147483789 
2147483744 2147483668 2147483669 2147483671 2147483672 2147483668 2147483669 2147483671 2147483672 2147483745 2147483789 2147483790 49 52 51 133 134 131 132 50 2147483745 2147483789 2147483790 
2147483745 2147483668 2147483669 2147483671 2147483672 2147483744 2147483668 2147483669 2147483671 2147483672 2147483744 2147483789 2147483790 49 52 51 133 134 131 132 50 2147483789 2147483790 
2147483746 2147483668 2147483669 2147483671 2147483672 2147483693 2147483668 2147483669 2147483671 2147483672 2147483693 2147483749 2147483750 2147483751 2147483753 2147483789 2147483790 2147483791 2147483792 2147483793 49 52 54 57 53 51 133 134 131 132 50 2147483749 2147483750 2147483751 2147483753 2147483789 2147483790 2147483791 2147483792 2147483793 
2147483749 2147483668 2147483669 2147483671 2147483672 2147483746 2147483668 2147483669 2147483671 2147483672 2147483746 2147483789 2147483790 49 52 51 133 134 131 132 50 2147483789 2147483790 
2147483750 2147483668 2147483669 2147483671 2147483672 2147483746 2147483668 2147483669 2147483671 2147483672 2147483746 2147483789 2147483790 49 52 51 133 134 131 132 50 2147483789 2147483790 
2147483751 2147483668 2147483669 2147483671 2147483672 2147483746 2147483668 2147483669 2147483671 2147483672 2147483746 2147483753 2147483789 2147483790 49 52 54 51 133 134 131 132 50 2147483753 2147483789 2147483790 
2147483753 2147483668 2147483669 2147483671 2147483672 2147483746 2147483751 2147483668 2147483669 2147483671 2147483672 2147483746 2147483751 2147483789 2147483790 49 52 54 51 133 134 131 132 50 2147483789 2147483790 
2147483766 2147483648 2147483668 2147483669 2147483648 2147483668 2147483669 2147483798 22 25 24 23 269 270 2147483798 
2147483769 2147483648 2147483651 2147483654 2147483648 2147483651 2147483654 2147483770 2147483771 2147483798 53 49 52 54 57 134 50 2147483770 2147483771 2147483798 
2147483770 2147483648 2147483651 2147483654 2147483717 2147483769 2147483648 2147483651 2147483654 2147483717 2147483769 2147483771 2147483798 57 49 52 54 53 51 134 50 2147483771 2147483798 
2147483771 2147483648 2147483651 2147483654 2147483713 2147483717 2147483769 2147483770 2147483648 2147483651 2147483654 2147483713 2147483717 2147483769 2147483770 2147483798 22 25 27 32 26 24 23 270 2147483798 
2147483781 2147483668 2147483669 2147483671 2147483672 2147483735 2147483668 2147483669 2147483671 2147483672 2147483735 2147483789 2147483790 2147483794 50 49 52 51 133 134 131 132 2147483789 2147483790 2147483794 
2147483789 2147483668 2147483669 2147483671 2147483672 2147483693 2147483696 2147483735 2147483741 2147483744 2147483745 2147483746 2147483749 2147483750 2147483751 2147483753 2147483781 2147483668 2147483669 2147483671 2147483672 2147483693 2147483696 2147483735 2147483741 2147483744 2147483745 2147483746 2147483749 2147483750 2147483751 2147483753 2147483781 2147483790 2147483791 2147483792 2147483793 2147483794 2147483800 2147483802 2147483804 22 25 27 32 26 263 264 265 266 24 23 269 270 267 268 2147483790 2147483791 2147483792 2147483793 2147483794 2147483800 2147483802 2147483804 
2147483790 2147483668 2147483669 2147483671 2147483672 2147483693 2147483696 2147483744 2147483745 2147483746 2147483749 2147483750 2147483751 2147483753 2147483781 2147483789 2147483668 2147483669 2147483671 2147483672 2147483693 2147483696 2147483744 2147483745 2147483746 2147483749 2147483750 2147483751 2147483753 2147483781 2147483789 2147483791 2147483792 2147483793 2147483794 2147483800 2147483802 2147483804 52 49 54 57 53 127 128 129 130 51 133 134 131 132 50 2147483791 2147483792 2147483793 2147483794 2147483800 2147483802 2147483804 
2147483791 2147483668 2147483669 2147483671 2147483672 2147483693 2147483696 2147483746 2147483789 2147483790 2147483668 2147483669 2147483671 2147483672 2147483693 2147483696 2147483746 2147483789 2147483790 2147483792 2147483793 57 49 52 54 53 51 133 134 131 132 50 2147483792 2147483793 
2147483792 2147483668 2147483669 2147483671 2147483672 2147483693 2147483696 2147483746 2147483789 2147483790 2147483791 2147483668 2147483669 2147483671 2147483672 2147483693 2147483696 2147483746 2147483789 2147483790 2147483791 2147483793 54 49 52 57 53 51 133 134 131 132 50 2147483793 
2147483793 2147483668 2147483669 2147483671 2147483672 2147483693 2147483696 2147483746 2147483789 2147483790 2147483791 2147483792 2147483668 2147483669 2147483671 2147483672 2147483693 2147483696 2147483746 2147483789 2147483790 2147483791 2147483792 22 25 27 32 26 24 23 269 270 267 268 
2147483794 2147483668 2147483669 2147483671 2147483672 2147483781 2147483789 2147483790 2147483668 2147483669 2147483671 2147483672 2147483781 2147483789 2147483790 2147483804 49 51 52 133 134 131 132 50 2147483804 
2147483798 2147483648 2147483649 2147483651 2147483654 2147483668 2147483669 2147483709 2147483712 2147483713 2147483716 2147483717 2147483720 2147483721 2147483722 2147483723 2147483724 2147483766 2147483769 2147483770 2147483771 2147483648 2147483649 2147483651 2147483654 2147483668 2147483669 2147483709 2147483712 2147483713 2147483716 2147483717 2147483720 2147483721 2147483722 2147483723 2147483724 2147483766 2147483769 2147483770 2147483771 52 49 54 57 53 127 128 129 130 51 133 134 50 
2147483799 2147483668 2147483668 49 51 
2147483800 2147483668 2147483669 2147483671 2147483672 2147483789 2147483790 2147483668 2147483669 2147483671 2147483672 2147483789 2147483790 57 53 51 133 134 131 132 50 
2147483802 2147483668 2147483669 2147483671 2147483672 2147483789 2147483790 2147483668 2147483669 2147483671 2147483672 2147483789 2147483790 52 54 57 53 51 133 134 131 132 50 
2147483804 2147483669 2147483671 2147483672 2147483789 2147483790 2147483794 2147483669 2147483671 2147483672 2147483789 2147483790 2147483794 22 25 23 269 270 267 268 
